Route #1: 8 30 38 9 52 48 6 36 34
Route #2: 29 15 32 4 12 40 22 25
Route #3: 33 47 23 16 51 14 10 24 18 5 46 20 17 39 3 50 13 49 27 44
Route #4: 31 21 19 43 2 26
Route #5: 41 7 42 35 45 11 28
Route #6: 37
Route #7: 1
cost 1015.1331419359764
